(declare-fun _substvar_297_ () Bool)
(declare-fun _substvar_302_ () Int)
(declare-fun _substvar_305_ () Bool)
(declare-fun _substvar_312_ () Bool)
(declare-fun v1 () Bool)
(declare-fun i0 () Int)
(declare-fun v6 () Bool)
(declare-fun i5 () Int)
(declare-fun v11 () Bool)
(declare-fun v17 () Bool)
(declare-fun v19 () Bool)
(declare-fun v24 () Bool)
(assert (or v19 (= (* (/ 692 4) i5) 692)))
(assert (or v24 v17 _substvar_297_))
(assert (or (= v6 v1) (distinct (= i5 (* i0 (/ 692 4))) v11)))
(assert _substvar_312_)
(assert (> _substvar_302_ 4))
(assert _substvar_305_)
(assert (=> v17 v11))
(assert (<= 793 (* i0 (/ 692 4))))
(check-sat)
